size = 15;

given = [|
1,2,2|
1,3,2|
1,12,4|
1,14,2|
2,1,8|
2,14,2|
3,5,3|
3,8,1|
3,9,8|
3,14,4|
4,3,4|
4,7,1|
4,8,2|
6,10,2|
6,13,2|
6,14,8|
7,10,2|
7,11,4|
8,5,5|
9,4,8|
10,4,7|
10,9,6|
11,1,1|
11,2,4|
12,2,1|
12,3,3|
12,8,2|
12,12,1|
12,13,2|
13,3,8|
13,6,3|
13,9,3|
14,5,2|
14,8,3|
15,4,1|
15,5,2|
16,4,1|
16,5,2|];